
  22   10
  10   10   10   10   10   10   10   10   10   10

   0   0   0   0   0   0   0   0   0   0   0   3 2 5 11 
   3   0   0   0  10   0   0   0   0   0   0   2 7 3 
   8   0   0  10   0   0   0   0   0   0   0   4 15 8 6 4 
  10   0   0   0   0   0  10   0   0   0   0   7 21 20 19 18 14 13 10 
   5   0   0  10   0   0   0   0   0   0   0   6 21 20 19 14 13 9 
   7   0   0   0  10   0   0   0   0   0   0   5 21 20 19 17 13 
   6   0   0   0   0  10   0   0   0   0   0   4 19 18 16 12 
   8  10   0   0   0   0   0   0   0   0   0   3 18 13 12 
   5  10   0   0   0   0   0   0   0   0   0   3 18 16 12 
   9   0   0   0   0   0   0   0   0   0  10   2 16 12 
   6   0   0  10   0   0   0   0   0   0   0   2 17 16 
   2   0   0   0  10   0   0   0   0   0   0   1 17 
   7   0   0   0   0   0   0   0  10   0   0   1 16 
   6   0   0   0  10   0   0   0   0   0   0   1 16 
   9  10   0   0   0   0   0   0   0   0   0   1 17 
   8   0   0   0   0   0   0  10   0   0   0   1 22
   9   0   0   0  10   0   0   0   0   0   0   1 22
   8   0  10   0   0   0   0   0   0   0   0   1 22
   2   0   0   0   0   0  10   0   0   0   0   1 22
   8   0   0   0   0   0   0   0  10   0   0   1 22
   9   0   0   0   0  10   0   0   0   0   0   1 22
   0   0   0   0   0   0   0   0   0   0   0   0 
